Test: fpga10_11_uns_rcr.cnf
Options: -no-inverting-opt -sym-usage-var-bump
WARNING: for repeatability, setting FPU to use double precision
============================[ Problem Statistics ]=============================
|                                                                             |
|  Number of symmetries:           38                                         |
|  Number of invertingSyms:         0                                         |
|  Number of variables:           220                                         |
|  Number of clauses:            1122                                         |
|  Parse time:                   0.00 s                                       |
|                                                                             |
============================[ Search Statistics ]==============================
| Conflicts |          ORIGINAL         |          LEARNT          | Progress |
|           |    Vars  Clauses Literals |    Limit  Clauses Lit/Cl |          |
===============================================================================
|       100 |     220     1122     2420 |      411      118     44 |  0.002 % |
|       250 |     220     1122     2420 |      452      349     43 |  0.002 % |
|       475 |     220     1122     2420 |      497      457     39 |  0.002 % |
|       812 |     220     1122     2420 |      547      462     33 |  0.002 % |
|      1318 |     220     1122     2420 |      602      405     30 |  0.002 % |
|      2077 |     220     1122     2420 |      662      465     29 |  0.002 % |
|      3216 |     220     1122     2420 |      728      561     30 |  0.002 % |
|      4924 |     220     1122     2420 |      801      437     29 |  0.002 % |
|      7486 |     220     1122     2420 |      881      756     27 |  0.023 % |
===============================================================================
restarts              : 31
conflicts             : 7982           (55427 /sec)
symconflicts          : 876            (6083 /sec)
decisions             : 12888          (0.00 % random) (89494 /sec)
propagations          : 155552         (1080155 /sec)
sympropagations       : 5869           (40754 /sec)
conflict literals     : 305338         (7.48 % deleted)
literals     : 305338         (7.48 % deleted)

HEURISTIC USAGES
random                : 0           
activity w/ lookahead : 0           
activity no lookahead : 0           
original sp           : 12888       
sym count             : 0           

Memory used           : 6.00 MB
CPU time              : 0.144009 s

UNSATISFIABLE
